115
0 112 36 93 28 69 100 82 17 33 
77 23 73 34 26 103 13 90 11 99 
55 113 10 65 110 9 45 105 76 70 
87 104 37 39 38 97 79 84 91 57 
14 88 27 114 66 7 94 47 22 50 
102 2 49 48 81 78 95 20 106 83 
61 15 29 89 64 43 67 5 32 19 
63 53 96 56 30 59 111 54 85 3 
52 74 21 92 4 98 44 62 109 75 
1 107 35 101 12 16 25 51 8 71 
86 60 40 24 46 68 18 41 80 108 
72 58 6 31 42 
